projected/problems_b25_r0_d7_m100_s666/_DIMACS/b25_d7_r0_s666_077.cnf
p cnf 299 602 25
c p show 1 2 3 4 5 6 7 8 9 10 11 12 13 14 15 16 17 18 19 20 21 22 23 24 25
-144 13 6 0
-145 -14 25 0
-146 145 144 0
-147 6 17 0
-148 -22 0
-148 4 0
-149 148 147 0
-150 149 0
-150 146 0
-151 -6 0
-151 -17 0
-152 22 -4 0
-153 152 0
-153 151 0
-154 -13 0
-154 -6 0
-155 14 0
-155 -25 0
-157 155 0
-157 154 0
-158 157 0
-158 153 0
-159 158 150 0
-160 9 -5 0
-161 22 24 0
-163 161 160 0
-164 3 -6 0
-165 16 0
-165 -10 0
-166 165 164 0
-167 166 0
-167 163 0
-169 167 0
-169 159 0
-170 -12 4 0
-171 -2 0
-171 -4 0
-172 171 170 0
-173 2 4 0
-175 12 0
-175 -4 0
-176 175 173 0
-177 176 0
-177 172 0
-178 18 0
-178 -5 0
-179 14 24 0
-181 179 0
-181 178 0
-182 181 0
-182 177 0
-183 5 0
-183 2 0
-184 -18 0
-184 -6 0
-185 184 0
-185 183 0
-187 22 0
-188 14 0
-188 19 0
-189 -19 0
-189 -14 0
-190 189 188 0
-191 190 187 0
-193 191 0
-193 185 0
-194 193 182 0
-195 194 169 0
-196 25 8 0
-197 -23 0
-197 7 0
-199 197 0
-199 196 0
-200 6 0
-200 18 0
-201 -18 0
-201 -7 0
-202 201 0
-202 200 0
-203 202 0
-203 199 0
-204 -20 -8 0
-205 -12 0
-205 -15 0
-206 205 204 0
-207 25 0
-207 -21 0
-208 -23 0
-208 -18 0
-209 208 207 0
-210 209 0
-210 206 0
-211 210 0
-211 203 0
-212 -14 -15 0
-213 -5 16 0
-214 213 0
-214 212 0
-215 20 18 0
-216 -24 0
-216 -9 0
-217 216 0
-217 215 0
-218 217 214 0
-219 -12 0
-219 25 0
-220 -14 0
-220 -19 0
-221 220 0
-221 219 0
-222 6 0
-222 19 0
-223 -15 5 0
-224 223 0
-224 222 0
-225 224 221 0
-226 225 0
-226 218 0
-227 226 211 0
-228 227 195 0
-229 -13 0
-229 -4 0
-230 229 0
-230 220 0
-231 -10 23 0
-232 -12 18 0
-233 232 231 0
-234 233 230 0
-235 16 -5 0
-236 3 0
-236 -9 0
-237 236 0
-237 235 0
-238 21 0
-238 12 0
-239 -11 0
-239 -23 0
-240 239 238 0
-241 240 237 0
-242 241 0
-242 234 0
-243 -21 0
-243 17 0
-244 243 0
-244 151 0
-245 -5 0
-245 23 0
-246 -15 0
-246 -4 0
-247 246 245 0
-248 247 0
-248 244 0
-249 14 -5 0
-250 1 0
-250 23 0
-251 250 0
-251 249 0
-252 24 6 0
-253 25 0
-253 16 0
-254 253 0
-254 252 0
-255 254 251 0
-256 255 248 0
-257 256 242 0
-258 -24 -25 0
-259 16 24 0
-260 259 258 0
-261 -4 0
-261 -20 0
-262 -11 0
-262 19 0
-263 262 0
-263 261 0
-264 263 260 0
-265 16 0
-265 -2 0
-266 5 16 0
-267 -16 -5 0
-268 267 0
-268 266 0
-269 268 0
-269 265 0
-270 -22 8 0
-271 16 -17 0
-272 271 270 0
-273 272 0
-273 269 0
-274 22 0
-274 -8 0
-275 -16 0
-275 17 0
-276 275 0
-276 274 0
-277 -16 2 0
-278 -5 0
-278 -16 0
-279 16 0
-279 5 0
-280 279 278 0
-281 280 277 0
-282 281 0
-282 276 0
-283 282 273 0
-284 283 264 0
-285 10 0
-285 -18 0
-286 3 18 0
-287 286 285 0
-288 -9 13 0
-289 -15 -23 0
-290 289 288 0
-291 290 287 0
-292 5 0
-292 -23 0
-293 2 19 0
-294 293 0
-294 292 0
-295 -2 0
-295 -19 0
-296 -5 23 0
-297 296 0
-297 295 0
-298 297 294 0
-299 -9 23 0
-26 -9 0
-26 7 0
-156 26 0
-156 299 0
-162 156 0
-162 298 0
-168 162 291 0
-174 168 284 0
-180 174 257 0
-186 180 228 0
-192 14 19 0
-198 13 4 0
-27 198 192 0
-28 10 0
-28 -23 0
-29 12 0
-29 -18 0
-30 29 0
-30 28 0
-31 30 0
-31 27 0
-32 -16 0
-32 5 0
-33 -3 9 0
-34 33 32 0
-35 -21 -12 0
-36 11 23 0
-37 36 0
-37 35 0
-38 37 0
-38 34 0
-39 38 31 0
-40 21 -17 0
-41 40 147 0
-42 5 -23 0
-43 15 4 0
-44 43 0
-44 42 0
-45 44 41 0
-46 -14 0
-46 5 0
-47 -1 -23 0
-48 47 46 0
-49 -24 0
-49 -6 0
-50 -25 -16 0
-51 50 49 0
-52 51 0
-52 48 0
-53 52 0
-53 45 0
-54 53 0
-54 39 0
-55 24 0
-55 25 0
-56 -16 0
-56 -24 0
-57 56 0
-57 55 0
-58 4 20 0
-59 11 -19 0
-60 59 58 0
-61 60 0
-61 57 0
-62 276 281 0
-63 269 272 0
-64 63 0
-64 62 0
-65 64 0
-65 61 0
-66 -10 18 0
-67 -3 0
-67 -18 0
-68 67 0
-68 66 0
-69 9 0
-69 -13 0
-70 15 0
-70 23 0
-71 70 0
-71 69 0
-72 71 0
-72 68 0
-73 295 296 0
-74 292 293 0
-75 74 0
-75 73 0
-76 9 0
-76 -23 0
-77 9 -7 0
-78 77 76 0
-79 78 75 0
-80 79 0
-80 72 0
-81 80 0
-81 65 0
-82 81 0
-82 54 0
-83 153 157 0
-84 146 149 0
-85 84 0
-85 83 0
-86 -9 0
-86 5 0
-87 -22 0
-87 -24 0
-88 87 0
-88 86 0
-89 -3 0
-89 6 0
-90 -16 10 0
-91 90 0
-91 89 0
-92 91 88 0
-93 92 85 0
-94 173 0
-94 175 0
-95 170 0
-95 171 0
-96 95 94 0
-97 -18 5 0
-98 -14 0
-98 -24 0
-99 98 97 0
-100 99 96 0
-101 -5 -2 0
-102 18 6 0
-103 102 101 0
-104 -22 0
-105 -14 -19 0
-106 19 14 0
-107 106 0
-107 105 0
-108 107 0
-108 104 0
-109 108 103 0
-110 109 0
-110 100 0
-111 110 0
-111 93 0
-112 -25 0
-112 -8 0
-113 23 -7 0
-114 113 112 0
-115 -6 -18 0
-116 18 7 0
-117 116 115 0
-118 117 114 0
-119 20 0
-119 8 0
-120 12 15 0
-121 120 0
-121 119 0
-122 -25 21 0
-123 23 18 0
-124 123 0
-124 122 0
-125 124 121 0
-126 125 118 0
-127 14 0
-127 15 0
-128 5 0
-128 -16 0
-129 128 127 0
-130 -20 0
-130 -18 0
-131 24 9 0
-132 131 130 0
-133 132 0
-133 129 0
-134 12 -25 0
-135 192 134 0
-136 -6 -19 0
-137 15 0
-137 -5 0
-138 137 136 0
-139 138 0
-139 135 0
-140 139 133 0
-141 140 0
-141 126 0
-142 141 0
-142 111 0
-143 142 82 0
143 0
186 0
-220 -192 0
-198 -229 0
-229 -198 0
-230 -27 0
-231 -28 0
-28 -231 0
-232 -29 0
-29 -232 0
-30 -233 0
-233 -30 0
-234 -31 0
-235 -32 0
-236 -33 0
-237 -34 0
-238 -35 0
-36 -239 0
-239 -36 0
-240 -37 0
-241 -38 0
-242 -39 0
-39 -242 0
-147 -151 0
-40 -243 0
-41 -244 0
-244 -41 0
-245 -42 0
-42 -245 0
-246 -43 0
-43 -246 0
-44 -247 0
-247 -44 0
-248 -45 0
-45 -248 0
-249 -46 0
-47 -250 0
-250 -47 0
-251 -48 0
-48 -251 0
-252 -49 0
-50 -253 0
-253 -50 0
-254 -51 0
-51 -254 0
-52 -255 0
-53 -256 0
-54 -257 0
-258 -55 0
-55 -258 0
-259 -56 0
-56 -259 0
-57 -260 0
-260 -57 0
-58 -261 0
-59 -262 0
-60 -263 0
-263 -60 0
-264 -61 0
-274 -270 0
-270 -274 0
-271 -275 0
-272 -276 0
-277 -265 0
-265 -277 0
-268 -280 0
-269 -281 0
-281 -269 0
-64 -283 0
-283 -64 0
-284 -65 0
-65 -284 0
-285 -66 0
-67 -286 0
-286 -67 0
-287 -68 0
-288 -69 0
-69 -288 0
-289 -70 0
-70 -289 0
-71 -290 0
-290 -71 0
-291 -72 0
-295 -293 0
-293 -295 0
-296 -292 0
-75 -298 0
-298 -75 0
-76 -299 0
-26 -77 0
-77 -26 0
-78 -156 0
-156 -78 0
-162 -79 0
-168 -80 0
-80 -168 0
-81 -174 0
-82 -180 0
-151 -147 0
-152 -148 0
-148 -152 0
-149 -153 0
-154 -144 0
-155 -145 0
-157 -146 0
-85 -159 0
-86 -160 0
-160 -86 0
-87 -161 0
-161 -87 0
-163 -88 0
-164 -89 0
-165 -90 0
-166 -91 0
-167 -92 0
-92 -167 0
-93 -169 0
-171 -173 0
-173 -171 0
-170 -175 0
-177 -96 0
-178 -97 0
-98 -179 0
-179 -98 0
-181 -99 0
-182 -100 0
-183 -101 0
-101 -183 0
-184 -102 0
-102 -184 0
-103 -185 0
-187 -104 0
-104 -187 0
-107 -190 0
-108 -191 0
-109 -193 0
-193 -109 0
-194 -110 0
-110 -194 0
-111 -195 0
-112 -196 0
-196 -112 0
-113 -197 0
-197 -113 0
-199 -114 0
-114 -199 0
-200 -115 0
-115 -200 0
-201 -116 0
-116 -201 0
-117 -202 0
-118 -203 0
-119 -204 0
-204 -119 0
-120 -205 0
-205 -120 0
-206 -121 0
-121 -206 0
-207 -122 0
-122 -207 0
-208 -123 0
-123 -208 0
-124 -209 0
-125 -210 0
-126 -211 0
-211 -126 0
-212 -127 0
-127 -212 0
-213 -128 0
-128 -213 0
-129 -214 0
-214 -129 0
-130 -215 0
-215 -130 0
-216 -131 0
-217 -132 0
-218 -133 0
-133 -218 0
-134 -219 0
-219 -134 0
-221 -135 0
-222 -136 0
-137 -223 0
-223 -137 0
-224 -138 0
-225 -139 0
-139 -225 0
-140 -226 0
-226 -140 0
-227 -141 0
-141 -227 0
-142 -228 0
-228 -142 0
