projected/problems_b25_r0_d7_m100_s666/b25_d7_r0_s666_077.smt2
(set-logic QF_UF)
(declare-fun A0 () Bool)
(declare-fun A1 () Bool)
(declare-fun A2 () Bool)
(declare-fun A3 () Bool)
(declare-fun A4 () Bool)
(declare-fun A5 () Bool)
(declare-fun A6 () Bool)
(declare-fun A7 () Bool)
(declare-fun A8 () Bool)
(declare-fun A9 () Bool)
(declare-fun A10 () Bool)
(declare-fun A11 () Bool)
(declare-fun A12 () Bool)
(declare-fun A13 () Bool)
(declare-fun A14 () Bool)
(declare-fun A15 () Bool)
(declare-fun A16 () Bool)
(declare-fun A17 () Bool)
(declare-fun A18 () Bool)
(declare-fun A19 () Bool)
(declare-fun A20 () Bool)
(declare-fun A21 () Bool)
(declare-fun A22 () Bool)
(declare-fun A23 () Bool)
(declare-fun A24 () Bool)
(assert (let ((.def_0 (not A18))) (let ((.def_1 (not A13))) (let ((.def_2 (and .def_1 .def_0))) (let ((.def_3 (or A12 A3))) (let ((.def_4 (not .def_3))) (let ((.def_5 (and .def_4 .def_2))) (let ((.def_6 (not A9))) (let ((.def_7 (or .def_6 A22))) (let ((.def_8 (not .def_7))) (let ((.def_9 (not A11))) (let ((.def_10 (or .def_9 A17))) (let ((.def_11 (not .def_10))) (let ((.def_12 (and .def_11 .def_8))) (let ((.def_13 (not .def_12))) (let ((.def_14 (or .def_13 .def_5))) (let ((.def_15 (not A4))) (let ((.def_16 (or A15 .def_15))) (let ((.def_17 (not A8))) (let ((.def_18 (and A2 .def_17))) (let ((.def_19 (and .def_18 .def_16))) (let ((.def_20 (and A20 A11))) (let ((.def_21 (or A10 A22))) (let ((.def_22 (not .def_21))) (let ((.def_23 (or .def_22 .def_20))) (let ((.def_24 (or .def_23 .def_19))) (let ((.def_25 (and .def_24 .def_14))) (let ((.def_26 (not .def_25))) (let ((.def_27 (or A5 A16))) (let ((.def_28 (not A16))) (let ((.def_29 (or A20 .def_28))) (let ((.def_30 (or .def_29 .def_27))) (let ((.def_31 (not .def_30))) (let ((.def_32 (and .def_15 A22))) (let ((.def_33 (not .def_32))) (let ((.def_34 (not A3))) (let ((.def_35 (not A14))) (let ((.def_36 (and .def_35 .def_34))) (let ((.def_37 (not .def_36))) (let ((.def_38 (and .def_37 .def_33))) (let ((.def_39 (not .def_38))) (let ((.def_40 (and .def_39 .def_31))) (let ((.def_41 (not .def_40))) (let ((.def_42 (or A13 .def_15))) (let ((.def_43 (not A22))) (let ((.def_44 (not A0))) (let ((.def_45 (or .def_44 .def_43))) (let ((.def_46 (not .def_45))) (let ((.def_47 (and .def_46 .def_42))) (let ((.def_48 (not .def_47))) (let ((.def_49 (or A23 A5))) (let ((.def_50 (not A15))) (let ((.def_51 (not A24))) (let ((.def_52 (or .def_51 .def_50))) (let ((.def_53 (not .def_52))) (let ((.def_54 (and .def_53 .def_49))) (let ((.def_55 (not .def_54))) (let ((.def_56 (and .def_55 .def_48))) (let ((.def_57 (and .def_56 .def_41))) (let ((.def_58 (and .def_57 .def_26))) (let ((.def_59 (not A23))) (let ((.def_60 (or .def_59 .def_51))) (let ((.def_61 (not .def_60))) (let ((.def_62 (or A15 A23))) (let ((.def_63 (not .def_62))) (let ((.def_64 (and .def_63 .def_61))) (let ((.def_65 (not .def_64))) (let ((.def_66 (or A3 A19))) (let ((.def_67 (or A10 .def_0))) (let ((.def_68 (or .def_67 .def_66))) (let ((.def_69 (not .def_68))) (let ((.def_70 (or .def_69 .def_65))) (let ((.def_71 (not A7))) (let ((.def_72 (and A21 .def_71))) (let ((.def_73 (not .def_72))) (let ((.def_74 (or A15 .def_28))) (let ((.def_75 (or .def_74 .def_73))) (let ((.def_76 (or .def_50 A1))) (let ((.def_77 (not .def_76))) (let ((.def_78 (= A15 .def_15))) (let ((.def_79 (and .def_78 .def_77))) (let ((.def_80 (not .def_79))) (let ((.def_81 (= .def_80 .def_75))) (let ((.def_82 (not .def_81))) (let ((.def_83 (or .def_82 .def_70))) (let ((.def_84 (not .def_83))) (let ((.def_85 (not A17))) (let ((.def_86 (and A9 .def_85))) (let ((.def_87 (not A2))) (let ((.def_88 (and .def_87 .def_85))) (let ((.def_89 (not .def_88))) (let ((.def_90 (or .def_89 .def_86))) (let ((.def_91 (or .def_17 A12))) (let ((.def_92 (not .def_91))) (let ((.def_93 (or .def_35 .def_43))) (let ((.def_94 (not .def_93))) (let ((.def_95 (and .def_94 .def_92))) (let ((.def_96 (not .def_95))) (let ((.def_97 (or .def_96 .def_90))) (let ((.def_98 (not A1))) (let ((.def_99 (and .def_98 .def_0))) (let ((.def_100 (not .def_99))) (let ((.def_101 (or .def_15 A22))) (let ((.def_102 (= .def_101 .def_100))) (let ((.def_103 (not .def_102))) (let ((.def_104 (and A8 .def_43))) (let ((.def_105 (and .def_17 A6))) (let ((.def_106 (not .def_105))) (let ((.def_107 (or .def_106 .def_104))) (let ((.def_108 (not .def_107))) (let ((.def_109 (and .def_108 .def_103))) (let ((.def_110 (or .def_109 .def_97))) (let ((.def_111 (not .def_110))) (let ((.def_112 (and .def_111 .def_84))) (let ((.def_113 (and .def_112 .def_58))) (let ((.def_114 (not A5))) (let ((.def_115 (and .def_114 .def_28))) (let ((.def_116 (not .def_115))) (let ((.def_117 (or A21 .def_34))) (let ((.def_118 (not .def_117))) (let ((.def_119 (or .def_118 .def_116))) (let ((.def_120 (not A12))) (let ((.def_121 (and .def_120 .def_114))) (let ((.def_122 (and A13 .def_51))) (let ((.def_123 (and .def_122 .def_121))) (let ((.def_124 (= .def_123 .def_119))) (let ((.def_125 (and .def_17 A4))) (let ((.def_126 (not .def_125))) (let ((.def_127 (not A21))) (let ((.def_128 (and .def_127 .def_59))) (let ((.def_129 (not .def_128))) (let ((.def_130 (or .def_129 .def_126))) (let ((.def_131 (or A2 .def_114))) (let ((.def_132 (and A15 .def_6))) (let ((.def_133 (or .def_132 .def_131))) (let ((.def_134 (and .def_133 .def_130))) (let ((.def_135 (not .def_134))) (let ((.def_136 (or .def_135 .def_124))) (let ((.def_137 (and .def_98 .def_34))) (let ((.def_138 (not .def_137))) (let ((.def_139 (or .def_9 A3))) (let ((.def_140 (= .def_139 .def_138))) (let ((.def_141 (and A17 .def_15))) (let ((.def_142 (and .def_1 .def_59))) (let ((.def_143 (not .def_142))) (let ((.def_144 (and .def_143 .def_141))) (let ((.def_145 (and .def_144 .def_140))) (let ((.def_146 (and A4 A1))) (let ((.def_147 (not .def_146))) (let ((.def_148 (and .def_85 .def_114))) (let ((.def_149 (not .def_148))) (let ((.def_150 (or .def_149 .def_147))) (let ((.def_151 (and A21 A21))) (let ((.def_152 (not .def_151))) (let ((.def_153 (= .def_0 A13))) (let ((.def_154 (and .def_153 .def_152))) (let ((.def_155 (or .def_154 .def_150))) (let ((.def_156 (not .def_155))) (let ((.def_157 (or .def_156 .def_145))) (let ((.def_158 (not .def_157))) (let ((.def_159 (and .def_158 .def_136))) (let ((.def_160 (and .def_51 .def_71))) (let ((.def_161 (not .def_160))) (let ((.def_162 (not A6))) (let ((.def_163 (or A22 .def_162))) (let ((.def_164 (not .def_163))) (let ((.def_165 (and .def_164 .def_161))) (let ((.def_166 (not .def_165))) (let ((.def_167 (and A5 A17))) (let ((.def_168 (not .def_167))) (let ((.def_169 (and .def_85 .def_162))) (let ((.def_170 (not .def_169))) (let ((.def_171 (or .def_170 .def_168))) (let ((.def_172 (or .def_171 .def_166))) (let ((.def_173 (and A19 A7))) (let ((.def_174 (not .def_173))) (let ((.def_175 (or A11 A14))) (let ((.def_176 (not .def_175))) (let ((.def_177 (or .def_176 .def_174))) (let ((.def_178 (not .def_177))) (let ((.def_179 (not A20))) (let ((.def_180 (and A24 .def_179))) (let ((.def_181 (not .def_180))) (let ((.def_182 (and .def_43 .def_85))) (let ((.def_183 (not .def_182))) (let ((.def_184 (and .def_183 .def_181))) (let ((.def_185 (or .def_184 .def_178))) (let ((.def_186 (or .def_185 .def_172))) (let ((.def_187 (not .def_186))) (let ((.def_188 (or .def_1 .def_35))) (let ((.def_189 (not .def_188))) (let ((.def_190 (or .def_15 A15))) (let ((.def_191 (not .def_190))) (let ((.def_192 (or .def_191 .def_189))) (let ((.def_193 (not .def_192))) (let ((.def_194 (not A19))) (let ((.def_195 (and .def_194 .def_85))) (let ((.def_196 (not .def_195))) (let ((.def_197 (and .def_59 .def_17))) (let ((.def_198 (and .def_197 .def_196))) (let ((.def_199 (or .def_198 .def_193))) (let ((.def_200 (not .def_199))) (let ((.def_201 (or A11 .def_51))) (let ((.def_202 (not .def_201))) (let ((.def_203 (and .def_2 .def_202))) (let ((.def_204 (and A5 A18))) (let ((.def_205 (and A14 .def_15))) (let ((.def_206 (not .def_205))) (let ((.def_207 (and .def_206 .def_204))) (let ((.def_208 (or .def_207 .def_203))) (let ((.def_209 (not .def_208))) (let ((.def_210 (or .def_209 .def_200))) (let ((.def_211 (not .def_210))) (let ((.def_212 (or .def_211 .def_187))) (let ((.def_213 (not .def_212))) (let ((.def_214 (and .def_213 .def_159))) (let ((.def_215 (not .def_214))) (let ((.def_216 (= .def_215 .def_113))) .def_216))))))))))))))))))))))))))))))))))))))))))))))))))))))))))))))))))))))))))))))))))))))))))))))))))))))))))))))))))))))))))))))))))))))))))))))))))))))))))))))))))))))))))))))))))))))))))))))))))))))))))))))))))))))))))
(check-sat)
